Geographic Exponential Decay
40 196 24 165 261 182 158 186 272 227 54 174 118 156 109 260 27 306 50 38 10 59 239 293 15 202 98 90 289 79 175 46 216 39 56 136 81 222 299 170 63
p edge 320 1332
e 0 126 1.0
e 1 220 1.0
e 2 254 1.0
e 3 304 8.0
e 4 148 3.0
e 4 208 6.0
e 4 168 6.0
e 4 59 41.0
e 5 85 1.0
e 5 17 1.0
e 6 283 2.0
e 7 176 2.0
e 8 144 7.0
e 8 306 18.0
e 8 221 8.0
e 8 127 7.0
e 9 127 5.0
e 9 263 6.0
e 10 289 65.0
e 10 287 31.0
e 10 147 37.0
e 10 40 44.0
e 10 174 50.0
e 10 190 77.0
e 10 8 14.0
e 10 231 49.0
e 10 124 69.0
e 10 140 72.0
e 10 244 15.0
e 10 16 82.0
e 10 150 69.0
e 10 32 23.0
e 10 96 32.0
e 10 80 24.0
e 10 265 81.0
e 10 5 99.0
e 10 7 98.0
e 10 239 74.0
e 10 222 84.0
e 10 240 73.0
e 10 233 35.0
e 10 169 13.0
e 10 125 82.0
e 10 232 9.0
e 10 46 75.0
e 11 290 3.0
e 11 34 3.0
e 12 183 2.0
e 13 264 2.0
e 14 285 6.0
e 14 188 3.0
e 15 137 84.0
e 15 216 76.0
e 15 162 79.0
e 15 172 2.0
e 15 207 28.0
e 15 299 53.0
e 15 135 97.0
e 15 84 99.0
e 15 174 17.0
e 15 161 3.0
e 15 23 24.0
e 15 283 52.0
e 15 257 72.0
e 15 313 100.0
e 15 166 8.0
e 15 20 93.0
e 15 98 87.0
e 15 48 92.0
e 15 241 43.0
e 15 86 85.0
e 15 106 88.0
e 15 167 81.0
e 15 195 79.0
e 15 31 84.0
e 15 55 89.0
e 15 180 31.0
e 15 260 38.0
e 16 262 5.0
e 16 15 11.0
e 16 250 4.0
e 18 184 24.0
e 18 230 7.0
e 18 235 3.0
e 18 135 17.0
e 18 76 11.0
e 18 98 62.0
e 18 245 20.0
e 19 216 65.0
e 19 97 6.0
e 21 58 2.0
e 22 127 1.0
e 22 134 1.0
e 23 185 7.0
e 23 183 8.0
e 23 53 10.0
e 24 32 18.0
e 24 314 34.0
e 24 218 57.0
e 24 317 53.0
e 24 141 77.0
e 24 276 47.0
e 24 238 65.0
e 24 277 75.0
e 24 43 30.0
e 24 189 28.0
e 24 88 52.0
e 24 117 19.0
e 24 182 42.0
e 24 145 44.0
e 24 295 29.0
e 24 93 45.0
e 24 318 62.0
e 24 235 59.0
e 24 122 87.0
e 24 249 43.0
e 24 305 70.0
e 24 233 20.0
e 24 46 65.0
e 24 19 32.0
e 24 52 49.0
e 24 237 72.0
e 24 119 65.0
e 25 70 12.0
e 25 192 7.0
e 25 24 89.0
e 25 68 12.0
e 26 314 7.0
e 26 266 8.0
e 26 264 5.0
e 26 181 5.0
e 27 36 17.0
e 27 188 26.0
e 27 14 58.0
e 27 90 29.0
e 27 12 86.0
e 27 311 87.0
e 27 180 30.0
e 27 283 69.0
e 27 95 26.0
e 27 156 54.0
e 27 236 14.0
e 27 47 31.0
e 27 83 80.0
e 27 141 71.0
e 27 163 13.0
e 27 152 44.0
e 27 155 3.0
e 27 164 91.0
e 27 218 5.0
e 27 140 46.0
e 27 282 96.0
e 27 19 64.0
e 27 4 83.0
e 27 42 3.0
e 27 239 83.0
e 27 194 16.0
e 27 168 92.0
e 28 246 3.0
e 28 72 6.0
e 29 84 1.0
e 29 299 94.0
e 30 37 10.0
e 30 80 19.0
e 30 207 10.0
e 30 148 8.0
e 30 298 8.0
e 30 304 11.0
e 30 251 1.0
e 33 52 4.0
e 33 295 6.0
e 35 52 2.0
e 38 304 37.0
e 38 225 2.0
e 38 107 87.0
e 38 154 79.0
e 38 271 55.0
e 38 224 69.0
e 38 62 5.0
e 38 293 10.0
e 38 84 42.0
e 38 20 43.0
e 38 239 30.0
e 38 223 12.0
e 38 220 13.0
e 38 279 67.0
e 38 285 74.0
e 38 286 54.0
e 38 5 58.0
e 38 21 17.0
e 38 48 24.0
e 38 53 38.0
e 38 299 30.0
e 38 264 6.0
e 38 198 35.0
e 38 186 22.0
e 38 109 66.0
e 38 269 41.0
e 38 134 16.0
e 39 286 86.0
e 39 305 5.0
e 39 255 20.0
e 39 294 88.0
e 39 268 72.0
e 39 42 45.0
e 39 92 85.0
e 39 91 74.0
e 39 129 54.0
e 39 109 39.0
e 39 47 37.0
e 39 62 81.0
e 39 309 63.0
e 39 176 72.0
e 39 198 83.0
e 39 168 89.0
e 39 291 20.0
e 39 104 66.0
e 39 180 61.0
e 39 135 1.0
e 39 272 37.0
e 39 68 67.0
e 39 290 1.0
e 39 295 16.0
e 39 12 22.0
e 39 170 91.0
e 39 173 3.0
e 41 81 31.0
e 41 133 1.0
e 42 67 2.0
e 42 185 1.0
e 42 259 32.0
e 42 18 40.0
e 42 150 11.0
e 42 72 27.0
e 42 233 26.0
e 42 231 50.0
e 42 130 31.0
e 42 91 10.0
e 42 299 24.0
e 42 136 26.0
e 43 229 8.0
e 44 160 18.0
e 44 236 4.0
e 44 180 5.0
e 44 199 24.0
e 44 237 22.0
e 44 136 28.0
e 44 55 10.0
e 45 252 1.0
e 45 19 1.0
e 46 157 15.0
e 46 241 9.0
e 46 86 24.0
e 46 55 70.0
e 46 56 12.0
e 46 290 69.0
e 46 232 95.0
e 46 267 57.0
e 46 87 74.0
e 46 41 46.0
e 46 151 12.0
e 46 148 35.0
e 46 33 45.0
e 46 294 93.0
e 46 121 47.0
e 46 293 36.0
e 46 242 88.0
e 46 217 20.0
e 46 9 40.0
e 46 16 38.0
e 46 189 87.0
e 46 268 79.0
e 46 161 30.0
e 46 108 31.0
e 46 283 29.0
e 48 248 2.0
e 48 289 76.0
e 49 262 12.0
e 49 11 15.0
e 49 33 16.0
e 49 132 24.0
e 49 16 1.0
e 49 198 23.0
e 49 128 11.0
e 50 117 8.0
e 50 85 90.0
e 50 253 18.0
e 50 31 37.0
e 50 241 75.0
e 50 303 87.0
e 50 163 67.0
e 50 295 76.0
e 50 236 66.0
e 50 265 93.0
e 50 217 43.0
e 50 223 66.0
e 50 202 28.0
e 50 44 57.0
e 50 259 72.0
e 50 94 94.0
e 50 86 24.0
e 50 132 59.0
e 50 34 45.0
e 50 25 87.0
e 50 220 71.0
e 50 16 73.0
e 50 197 83.0
e 50 118 12.0
e 50 245 37.0
e 50 97 58.0
e 50 39 87.0
e 51 141 1.0
e 51 109 27.0
e 54 278 36.0
e 54 218 91.0
e 54 167 82.0
e 54 313 22.0
e 54 240 3.0
e 54 266 29.0
e 54 161 85.0
e 54 180 59.0
e 54 17 19.0
e 54 130 86.0
e 54 207 79.0
e 54 250 96.0
e 54 309 46.0
e 54 5 34.0
e 54 233 96.0
e 54 19 33.0
e 54 41 35.0
e 54 140 65.0
e 54 219 22.0
e 54 197 46.0
e 54 312 19.0
e 54 171 35.0
e 54 308 91.0
e 54 67 58.0
e 54 305 38.0
e 54 217 67.0
e 54 98 24.0
e 55 179 8.0
e 56 298 87.0
e 56 102 98.0
e 56 291 29.0
e 56 161 16.0
e 56 141 13.0
e 56 286 94.0
e 56 160 57.0
e 56 196 57.0
e 56 76 45.0
e 56 11 59.0
e 56 132 74.0
e 56 94 67.0
e 56 292 38.0
e 56 211 88.0
e 56 245 42.0
e 56 37 37.0
e 56 197 89.0
e 56 194 12.0
e 56 281 72.0
e 56 13 39.0
e 56 214 5.0
e 56 164 79.0
e 56 276 92.0
e 56 4 15.0
e 56 212 26.0
e 56 213 99.0
e 57 176 1.0
e 58 34 2.0
e 59 308 37.0
e 59 229 42.0
e 59 14 33.0
e 59 135 75.0
e 59 100 66.0
e 59 2 16.0
e 59 73 23.0
e 59 190 42.0
e 59 161 63.0
e 59 218 78.0
e 59 297 44.0
e 59 92 69.0
e 59 5 77.0
e 59 123 59.0
e 59 296 77.0
e 59 120 23.0
e 59 184 26.0
e 59 27 65.0
e 59 232 35.0
e 59 106 69.0
e 59 29 29.0
e 59 242 37.0
e 59 213 63.0
e 59 317 49.0
e 59 26 61.0
e 59 103 91.0
e 60 100 12.0
e 60 278 48.0
e 60 301 6.0
e 60 114 7.0
e 60 71 27.0
e 60 44 37.0
e 60 40 25.0
e 60 141 1.0
e 60 230 46.0
e 60 234 32.0
e 60 3 12.0
e 60 188 5.0
e 60 45 4.0
e 60 136 18.0
e 61 82 1.0
e 63 281 62.0
e 63 92 62.0
e 63 193 43.0
e 63 6 88.0
e 63 49 1.0
e 63 173 72.0
e 63 201 54.0
e 63 305 82.0
e 63 144 74.0
e 63 51 46.0
e 63 188 65.0
e 63 154 74.0
e 63 7 69.0
e 63 306 76.0
e 63 88 7.0
e 63 89 60.0
e 63 287 9.0
e 63 65 51.0
e 63 147 38.0
e 63 3 44.0
e 63 146 98.0
e 63 174 67.0
e 63 221 50.0
e 63 93 22.0
e 63 142 67.0
e 63 259 57.0
e 63 200 3.0
e 64 0 1.0
e 66 10 41.0
e 66 307 2.0
e 66 277 9.0
e 66 179 11.0
e 68 61 5.0
e 68 263 11.0
e 69 60 13.0
e 70 308 12.0
e 70 11 9.0
e 70 313 16.0
e 70 294 2.0
e 70 229 1.0
e 70 46 80.0
e 73 250 1.0
e 74 161 2.0
e 75 150 1.0
e 77 124 1.0
e 78 43 14.0
e 78 260 15.0
e 78 79 91.0
e 78 164 14.0
e 78 233 1.0
e 78 236 14.0
e 78 86 10.0
e 79 64 16.0
e 79 296 60.0
e 79 258 99.0
e 79 248 39.0
e 79 222 67.0
e 79 35 91.0
e 79 49 15.0
e 79 93 33.0
e 79 135 34.0
e 79 129 4.0
e 79 90 3.0
e 79 71 81.0
e 79 1 61.0
e 79 58 14.0
e 79 25 65.0
e 79 130 29.0
e 79 216 68.0
e 79 67 60.0
e 79 292 92.0
e 79 253 57.0
e 79 59 95.0
e 79 157 79.0
e 79 271 86.0
e 79 65 67.0
e 79 70 25.0
e 79 147 26.0
e 80 170 70.0
e 80 86 11.0
e 81 141 94.0
e 81 51 73.0
e 81 286 12.0
e 81 254 74.0
e 81 157 99.0
e 81 229 49.0
e 81 288 69.0
e 81 138 83.0
e 81 209 56.0
e 81 8 5.0
e 81 179 40.0
e 81 172 21.0
e 81 140 83.0
e 81 104 25.0
e 81 252 80.0
e 81 270 97.0
e 81 20 9.0
e 81 72 78.0
e 81 255 91.0
e 81 91 89.0
e 81 130 8.0
e 81 222 72.0
e 81 198 73.0
e 81 267 16.0
e 81 225 95.0
e 81 150 78.0
e 83 217 1.0
e 87 148 8.0
e 89 69 9.0
e 89 76 4.0
e 89 173 24.0
e 89 286 18.0
e 89 272 89.0
e 89 297 19.0
e 90 191 83.0
e 90 38 27.0
e 90 313 32.0
e 90 42 64.0
e 90 170 56.0
e 90 116 17.0
e 90 253 95.0
e 90 309 39.0
e 90 52 99.0
e 90 179 60.0
e 90 282 67.0
e 90 132 52.0
e 90 117 56.0
e 90 145 32.0
e 90 277 24.0
e 90 107 92.0
e 90 129 9.0
e 90 148 75.0
e 90 87 23.0
e 90 58 100.0
e 90 141 64.0
e 90 94 87.0
e 90 49 16.0
e 90 265 35.0
e 90 304 23.0
e 95 94 15.0
e 95 145 6.0
e 95 58 17.0
e 95 112 20.0
e 95 87 16.0
e 95 318 7.0
e 96 62 3.0
e 98 133 7.0
e 98 293 25.0
e 98 24 72.0
e 98 87 12.0
e 98 67 64.0
e 98 129 55.0
e 98 227 46.0
e 98 22 63.0
e 98 213 23.0
e 98 155 84.0
e 98 251 95.0
e 98 234 9.0
e 98 157 72.0
e 98 214 99.0
e 98 84 71.0
e 98 172 26.0
e 98 63 9.0
e 98 233 87.0
e 98 198 10.0
e 98 6 72.0
e 98 104 61.0
e 98 42 6.0
e 98 193 89.0
e 98 196 99.0
e 99 52 2.0
e 101 49 20.0
e 105 272 61.0
e 107 299 58.0
e 107 194 1.0
e 108 214 9.0
e 108 163 6.0
e 108 16 2.0
e 109 272 47.0
e 109 153 95.0
e 109 120 7.0
e 109 316 82.0
e 109 312 84.0
e 109 289 61.0
e 109 204 35.0
e 109 178 82.0
e 109 147 46.0
e 109 136 8.0
e 109 69 56.0
e 109 88 28.0
e 109 84 100.0
e 109 89 22.0
e 109 138 22.0
e 109 232 3.0
e 109 21 75.0
e 109 237 85.0
e 109 233 45.0
e 109 14 59.0
e 109 226 34.0
e 109 137 9.0
e 109 239 45.0
e 109 315 97.0
e 110 282 11.0
e 111 78 2.0
e 111 91 13.0
e 111 40 6.0
e 111 57 13.0
e 111 79 54.0
e 111 3 8.0
e 111 166 13.0
e 113 74 1.0
e 114 92 7.0
e 114 133 8.0
e 114 255 1.0
e 115 92 1.0
e 118 201 18.0
e 118 72 95.0
e 118 281 85.0
e 118 209 79.0
e 118 275 17.0
e 118 101 80.0
e 118 6 99.0
e 118 15 55.0
e 118 247 90.0
e 118 228 21.0
e 118 40 28.0
e 118 60 80.0
e 118 268 97.0
e 118 287 24.0
e 118 221 49.0
e 118 203 100.0
e 118 114 29.0
e 118 131 79.0
e 118 36 97.0
e 118 208 48.0
e 118 8 48.0
e 118 276 10.0
e 118 61 67.0
e 118 126 9.0
e 118 128 69.0
e 118 46 68.0
e 119 196 40.0
e 119 177 7.0
e 119 35 39.0
e 119 252 26.0
e 119 122 29.0
e 119 113 10.0
e 119 292 16.0
e 119 117 23.0
e 119 264 22.0
e 119 242 6.0
e 119 267 35.0
e 119 37 7.0
e 119 309 25.0
e 121 89 17.0
e 121 289 53.0
e 121 275 14.0
e 122 147 16.0
e 122 222 93.0
e 122 133 13.0
e 122 194 14.0
e 122 185 2.0
e 123 210 10.0
e 123 13 2.0
e 123 12 22.0
e 123 177 5.0
e 123 112 15.0
e 123 183 23.0
e 128 50 1.0
e 128 247 11.0
e 128 95 9.0
e 128 21 6.0
e 128 201 7.0
e 136 247 87.0
e 136 273 33.0
e 136 175 15.0
e 136 80 75.0
e 136 122 45.0
e 136 254 96.0
e 136 102 28.0
e 136 210 15.0
e 136 104 2.0
e 136 251 21.0
e 136 160 52.0
e 136 265 37.0
e 136 23 48.0
e 136 260 29.0
e 136 58 60.0
e 136 238 78.0
e 136 227 94.0
e 136 209 25.0
e 136 165 84.0
e 136 54 62.0
e 136 135 36.0
e 136 269 20.0
e 136 25 47.0
e 139 6 1.0
e 143 231 1.0
e 145 218 6.0
e 146 150 2.0
e 149 88 14.0
e 149 300 18.0
e 149 243 13.0
e 149 263 16.0
e 149 215 10.0
e 149 232 2.0
e 149 68 22.0
e 152 114 6.0
e 156 72 20.0
e 156 267 70.0
e 156 34 25.0
e 156 68 53.0
e 156 177 95.0
e 156 308 28.0
e 156 316 24.0
e 156 67 58.0
e 156 89 67.0
e 156 35 37.0
e 156 233 58.0
e 156 243 8.0
e 156 178 50.0
e 156 200 3.0
e 156 229 96.0
e 156 213 77.0
e 156 20 56.0
e 156 11 72.0
e 156 303 38.0
e 156 94 58.0
e 156 220 48.0
e 156 48 34.0
e 156 255 16.0
e 156 58 79.0
e 156 284 20.0
e 156 69 87.0
e 158 184 23.0
e 158 22 91.0
e 158 34 75.0
e 158 7 57.0
e 158 283 30.0
e 158 107 70.0
e 158 203 10.0
e 158 190 6.0
e 158 125 64.0
e 158 145 86.0
e 158 162 100.0
e 158 63 86.0
e 158 15 59.0
e 158 291 22.0
e 158 56 77.0
e 158 23 28.0
e 158 223 43.0
e 158 297 82.0
e 158 140 40.0
e 158 24 6.0
e 158 39 29.0
e 158 178 83.0
e 158 159 37.0
e 158 101 29.0
e 158 25 85.0
e 158 174 56.0
e 158 155 60.0
e 164 43 12.0
e 165 92 14.0
e 165 307 79.0
e 165 30 27.0
e 165 141 26.0
e 165 29 37.0
e 165 290 79.0
e 165 186 30.0
e 165 246 26.0
e 165 270 30.0
e 165 173 87.0
e 165 242 74.0
e 165 98 19.0
e 165 190 52.0
e 165 234 21.0
e 165 239 5.0
e 165 271 83.0
e 165 153 8.0
e 165 33 77.0
e 165 259 40.0
e 165 301 83.0
e 165 50 71.0
e 165 318 32.0
e 165 60 96.0
e 165 268 23.0
e 165 78 34.0
e 165 4 4.0
e 167 85 2.0
e 167 6 3.0
e 170 234 98.0
e 170 211 4.0
e 170 138 43.0
e 170 298 46.0
e 170 22 73.0
e 170 195 72.0
e 170 268 11.0
e 170 174 63.0
e 170 161 92.0
e 170 155 93.0
e 170 239 85.0
e 170 295 82.0
e 170 222 30.0
e 170 263 96.0
e 170 24 61.0
e 170 251 79.0
e 170 4 23.0
e 170 102 48.0
e 170 145 39.0
e 170 249 69.0
e 170 192 35.0
e 170 247 51.0
e 170 103 16.0
e 170 79 26.0
e 171 108 1.0
e 173 131 21.0
e 173 286 20.0
e 173 313 20.0
e 174 96 51.0
e 174 27 90.0
e 174 163 86.0
e 174 51 51.0
e 174 139 86.0
e 174 265 25.0
e 174 152 61.0
e 174 296 61.0
e 174 292 5.0
e 174 131 66.0
e 174 310 82.0
e 174 229 95.0
e 174 104 20.0
e 174 22 86.0
e 174 68 23.0
e 174 254 35.0
e 174 107 80.0
e 174 317 42.0
e 174 69 12.0
e 174 77 75.0
e 174 204 28.0
e 174 155 24.0
e 175 166 90.0
e 175 231 60.0
e 175 313 36.0
e 175 273 62.0
e 175 310 62.0
e 175 94 70.0
e 175 46 89.0
e 175 311 52.0
e 175 170 53.0
e 175 293 65.0
e 175 167 16.0
e 175 268 52.0
e 175 254 79.0
e 175 288 6.0
e 175 222 63.0
e 175 44 17.0
e 175 39 88.0
e 175 224 56.0
e 175 294 15.0
e 175 279 80.0
e 175 45 97.0
e 175 274 28.0
e 175 269 89.0
e 175 47 51.0
e 175 252 47.0
e 175 171 37.0
e 182 16 60.0
e 182 283 44.0
e 182 150 69.0
e 182 79 67.0
e 182 25 42.0
e 182 207 91.0
e 182 14 74.0
e 182 215 1.0
e 182 147 27.0
e 182 222 51.0
e 182 115 88.0
e 182 301 39.0
e 182 64 57.0
e 182 303 56.0
e 182 253 42.0
e 182 126 91.0
e 182 263 55.0
e 182 69 31.0
e 182 15 99.0
e 182 223 67.0
e 182 192 61.0
e 182 50 32.0
e 182 85 67.0
e 182 140 88.0
e 182 186 75.0
e 182 34 97.0
e 186 177 20.0
e 186 128 81.0
e 186 263 2.0
e 186 212 9.0
e 186 178 81.0
e 186 126 12.0
e 186 311 89.0
e 186 296 75.0
e 186 43 1.0
e 186 179 47.0
e 186 220 22.0
e 186 276 67.0
e 186 251 4.0
e 186 259 78.0
e 186 3 98.0
e 186 236 86.0
e 186 127 78.0
e 186 115 7.0
e 186 15 92.0
e 186 197 98.0
e 186 210 88.0
e 186 282 66.0
e 186 211 22.0
e 186 291 82.0
e 187 169 2.0
e 189 187 7.0
e 189 220 11.0
e 192 26 4.0
e 193 221 17.0
e 193 174 37.0
e 193 156 85.0
e 193 68 30.0
e 193 228 34.0
e 193 255 39.0
e 193 40 10.0
e 193 219 35.0
e 193 57 13.0
e 193 8 10.0
e 193 208 35.0
e 193 23 36.0
e 196 229 88.0
e 196 210 98.0
e 196 81 53.0
e 196 116 3.0
e 196 202 9.0
e 196 71 3.0
e 196 247 64.0
e 196 53 91.0
e 196 18 2.0
e 196 187 28.0
e 196 189 37.0
e 196 316 21.0
e 196 39 76.0
e 196 170 50.0
e 196 300 37.0
e 196 220 64.0
e 196 214 58.0
e 196 250 93.0
e 196 43 66.0
e 196 281 100.0
e 196 111 23.0
e 196 79 94.0
e 196 203 32.0
e 196 105 45.0
e 202 98 97.0
e 202 119 78.0
e 202 289 72.0
e 202 124 51.0
e 202 224 82.0
e 202 70 35.0
e 202 205 28.0
e 202 99 29.0
e 202 209 13.0
e 202 59 86.0
e 202 282 52.0
e 202 40 37.0
e 202 128 70.0
e 202 175 43.0
e 202 121 52.0
e 202 247 13.0
e 202 2 68.0
e 202 159 62.0
e 202 306 82.0
e 202 17 97.0
e 202 210 50.0
e 202 270 31.0
e 202 297 64.0
e 202 229 50.0
e 202 62 82.0
e 203 128 12.0
e 203 298 15.0
e 203 204 19.0
e 203 15 52.0
e 203 146 15.0
e 203 0 30.0
e 203 247 24.0
e 203 18 47.0
e 203 24 28.0
e 203 148 8.0
e 203 162 50.0
e 206 207 2.0
e 206 308 6.0
e 206 182 93.0
e 206 294 13.0
e 216 73 63.0
e 216 128 50.0
e 216 259 1.0
e 216 269 66.0
e 216 300 53.0
e 216 143 42.0
e 216 316 83.0
e 216 155 3.0
e 216 213 14.0
e 216 68 78.0
e 216 197 45.0
e 216 156 28.0
e 216 283 17.0
e 216 192 55.0
e 216 138 13.0
e 216 3 20.0
e 216 274 48.0
e 216 39 44.0
e 216 100 51.0
e 216 318 3.0
e 216 188 98.0
e 216 286 26.0
e 216 28 78.0
e 216 241 32.0
e 218 119 19.0
e 218 126 14.0
e 219 78 13.0
e 219 290 12.0
e 222 270 80.0
e 222 13 6.0
e 222 167 97.0
e 222 73 18.0
e 222 95 91.0
e 222 176 21.0
e 222 117 18.0
e 222 162 80.0
e 222 94 99.0
e 222 97 92.0
e 222 225 72.0
e 222 237 62.0
e 222 31 10.0
e 222 281 24.0
e 222 86 27.0
e 222 264 98.0
e 222 88 15.0
e 222 262 59.0
e 222 2 59.0
e 222 160 86.0
e 227 144 94.0
e 227 107 12.0
e 227 271 48.0
e 227 10 34.0
e 227 72 32.0
e 227 269 38.0
e 227 231 72.0
e 227 66 58.0
e 227 221 50.0
e 227 153 77.0
e 227 77 47.0
e 227 253 18.0
e 227 314 51.0
e 227 272 95.0
e 227 87 52.0
e 227 55 18.0
e 227 202 43.0
e 227 67 70.0
e 227 181 72.0
e 227 51 86.0
e 227 150 43.0
e 227 219 88.0
e 227 211 42.0
e 227 182 37.0
e 227 9 84.0
e 238 87 6.0
e 238 101 1.0
e 239 187 15.0
e 239 125 57.0
e 239 218 93.0
e 239 253 19.0
e 239 298 95.0
e 239 122 17.0
e 239 294 33.0
e 239 60 97.0
e 239 299 62.0
e 239 216 64.0
e 239 55 16.0
e 239 166 75.0
e 239 169 49.0
e 239 76 36.0
e 239 102 11.0
e 239 163 62.0
e 239 244 70.0
e 239 57 74.0
e 239 144 4.0
e 239 145 54.0
e 239 88 52.0
e 240 211 2.0
e 240 302 5.0
e 249 273 3.0
e 249 175 18.0
e 256 76 2.0
e 257 149 22.0
e 257 259 2.0
e 257 42 23.0
e 258 116 6.0
e 258 238 27.0
e 258 40 32.0
e 258 113 1.0
e 258 158 21.0
e 258 144 35.0
e 258 230 3.0
e 258 134 21.0
e 258 80 13.0
e 258 44 22.0
e 258 128 36.0
e 258 264 15.0
e 258 239 64.0
e 260 193 25.0
e 260 166 28.0
e 260 45 36.0
e 260 51 26.0
e 260 186 70.0
e 260 236 89.0
e 260 73 87.0
e 260 184 97.0
e 260 288 26.0
e 260 294 34.0
e 260 68 50.0
e 260 156 44.0
e 260 91 85.0
e 260 138 87.0
e 260 74 96.0
e 260 183 33.0
e 260 220 99.0
e 260 139 42.0
e 260 111 34.0
e 260 273 14.0
e 260 217 27.0
e 260 152 18.0
e 260 72 5.0
e 260 23 41.0
e 261 314 37.0
e 261 313 18.0
e 261 29 75.0
e 261 301 71.0
e 261 260 88.0
e 261 202 1.0
e 261 196 60.0
e 261 257 14.0
e 261 108 48.0
e 261 296 77.0
e 261 74 91.0
e 261 234 33.0
e 261 153 47.0
e 261 99 67.0
e 261 279 93.0
e 261 235 33.0
e 261 130 36.0
e 261 41 81.0
e 261 128 50.0
e 261 122 6.0
e 261 284 65.0
e 261 146 28.0
e 261 9 82.0
e 261 154 8.0
e 261 221 67.0
e 261 207 11.0
e 261 205 25.0
e 272 169 19.0
e 272 191 13.0
e 272 57 52.0
e 272 302 13.0
e 272 107 31.0
e 272 211 13.0
e 272 162 25.0
e 272 26 78.0
e 272 245 45.0
e 272 115 77.0
e 272 25 64.0
e 272 27 49.0
e 272 194 47.0
e 272 156 32.0
e 272 200 57.0
e 272 104 17.0
e 272 94 85.0
e 272 84 1.0
e 272 217 89.0
e 272 303 68.0
e 272 74 52.0
e 272 41 93.0
e 275 181 14.0
e 275 255 50.0
e 275 263 36.0
e 275 151 1.0
e 275 261 13.0
e 275 162 8.0
e 275 232 17.0
e 275 16 18.0
e 275 317 3.0
e 275 28 34.0
e 275 211 22.0
e 275 37 1.0
e 280 296 1.0
e 282 87 13.0
e 282 95 19.0
e 282 64 35.0
e 282 142 6.0
e 282 99 24.0
e 282 235 32.0
e 282 219 13.0
e 282 69 43.0
e 282 106 48.0
e 289 294 9.0
e 289 296 2.0
e 289 256 15.0
e 289 239 72.0
e 289 288 30.0
e 289 244 8.0
e 289 318 15.0
e 289 71 58.0
e 289 158 40.0
e 289 245 27.0
e 289 96 72.0
e 289 145 73.0
e 289 111 49.0
e 289 295 80.0
e 289 130 68.0
e 289 264 97.0
e 289 108 8.0
e 289 242 35.0
e 289 88 72.0
e 289 215 90.0
e 289 164 13.0
e 289 290 52.0
e 291 175 79.0
e 291 43 4.0
e 291 187 4.0
e 292 63 60.0
e 292 99 7.0
e 292 181 11.0
e 293 291 90.0
e 293 101 1.0
e 293 135 65.0
e 293 239 23.0
e 293 268 12.0
e 293 316 23.0
e 293 117 10.0
e 293 76 78.0
e 293 227 90.0
e 293 70 82.0
e 293 317 92.0
e 293 228 14.0
e 293 57 48.0
e 293 286 25.0
e 293 290 91.0
e 293 307 69.0
e 293 208 6.0
e 293 270 14.0
e 293 6 80.0
e 293 201 83.0
e 293 225 29.0
e 293 64 90.0
e 293 83 12.0
e 299 98 65.0
e 299 289 65.0
e 299 169 50.0
e 299 173 19.0
e 299 200 9.0
e 299 121 84.0
e 299 187 14.0
e 299 120 4.0
e 299 30 14.0
e 299 293 41.0
e 299 236 4.0
e 299 136 45.0
e 299 114 92.0
e 299 79 85.0
e 299 258 83.0
e 299 146 90.0
e 299 26 32.0
e 299 145 85.0
e 299 59 65.0
e 299 31 66.0
e 299 276 87.0
e 306 118 57.0
e 306 209 68.0
e 306 152 10.0
e 306 287 74.0
e 306 44 96.0
e 306 168 53.0
e 306 229 57.0
e 306 207 13.0
e 306 7 97.0
e 306 123 91.0
e 306 293 55.0
e 306 203 53.0
e 306 185 71.0
e 306 269 5.0
e 306 226 81.0
e 306 272 37.0
e 306 149 100.0
e 306 151 49.0
e 306 57 99.0
e 306 134 51.0
e 306 144 84.0
e 306 84 77.0
e 306 64 56.0
e 306 111 99.0
e 308 201 7.0
e 308 76 12.0
e 310 139 17.0
e 310 22 10.0
e 310 183 3.0
e 310 5 39.0
e 310 273 49.0
e 310 221 33.0
e 310 127 10.0
e 310 61 28.0
e 310 112 16.0
e 310 85 21.0
e 310 17 23.0
e 310 237 28.0
e 319 158 97.0
e 319 315 6.0
e 319 129 10.0
e 319 204 4.0
